3098
6758
5050
6117
9416
994
10054
1356
4190
9160
940
8533
647
7916
7930
6390
8061
3360
3273
7347
3473
5607
8795
1175
6232
8798
5141
1323
4808
2855
4966
8473
9047
3382
2769
1017
2373
6613
5937
5419
5380
2668
7826
1692
8020
2242
6145
8532
4435
2569
2324
